%%% static parameters %%%
timespan = 1;
Fact = [3];
Distr1 = [10];
Distr2 = [20];
Clients_N = [40];
Demand_W = [15];
Lt0 = [4];
Lt1 = [4];
SS_ = [0.85];
DS_D = [7];
K = [200];
MA = [500];
%%% dynamic parameters %%%
lost_ratio_sales_ret_th = 0.8620332789992989;
lost_ratio_sales_ret_w = 67;
lost_ratio_sales_dis_th = 0.8805903604777682;
lost_ratio_sales_dis_w = 89;
lost_ratio_sales_fac_th = 0.48822655588332153;
lost_ratio_sales_fac_w = 14;
stock_customer_MA_mean_relative_th = 0.3438919733870667;
stock_customer_MA_mean_relative_w = 25;
stock_distributor_MA_mean_relative_th = 0.2323463680416562;
stock_distributor_MA_mean_relative_w = 98;
stock_retailer_MA_mean_relative_th = 0.41227635716231126;
stock_retailer_MA_mean_relative_w = 62;
stock_factory_MA_mean_relative_th = 0.7398653672489265;
stock_factory_MA_mean_relative_w = 54;
